CMPL model generation - running

CMPL version: 1.11.0
Authors: Thomas Schleiff, Mike Steglich
Distributed under the GPLv3 

create model instance ...
write model instance ...
CMPL model generation - finished

Solver - running


Welcome to IBM(R) ILOG(R) CPLEX(R) Interactive Optimizer 12.7.1.0
  with Simplex, Mixed Integer & Barrier Optimizers
5725-A06 5725-A29 5724-Y48 5724-Y49 5724-Y54 5724-Y55 5655-Y21
Copyright IBM Corp. 1988, 2017.  All Rights Reserved.

Type 'help' for a list of available commands.
Type 'help' followed by a command name for more
information on commands.

CPLEX> Specified objective sense: MINIMIZE
Selected objective  name:  line[1]
Selected RHS        name:  RHS
Selected bound      name:  BOUND
Problem '/tmp/cmpl.T23546.mps' read.
Read time = 0.10 sec. (8.16 ticks)
CPLEX> CPXPARAM_Read_APIEncoding                        "UTF-8"
Tried aggregator 3 times.
MIP Presolve eliminated 19305 rows and 30825 columns.
MIP Presolve modified 340 coefficients.
Aggregator did 592 substitutions.
Reduced MIP has 2458 rows, 3176 columns, and 9300 nonzeros.
Reduced MIP has 3008 binaries, 0 generals, 0 SOSs, and 0 indicators.
Presolve time = 0.08 sec. (41.64 ticks)
Found incumbent of value 857.798935 after 0.22 sec. (102.74 ticks)
Probing fixed 6 vars, tightened 0 bounds.
Probing time = 0.02 sec. (3.97 ticks)
Tried aggregator 1 time.
MIP Presolve eliminated 0 rows and 6 columns.
MIP Presolve modified 24 coefficients.
Reduced MIP has 2458 rows, 3170 columns, and 9288 nonzeros.
Reduced MIP has 3170 binaries, 0 generals, 0 SOSs, and 0 indicators.
Presolve time = 0.01 sec. (7.93 ticks)
Probing time = 0.01 sec. (2.68 ticks)
Clique table members: 5091.
MIP emphasis: balance optimality and feasibility.
MIP search method: dynamic search.
Parallel mode: none, using 1 thread.
Root relaxation solution time = 0.00 sec. (4.27 ticks)

        Nodes                                         Cuts/
   Node  Left     Objective  IInf  Best Integer    Best Bound    ItCnt     Gap

*     0+    0                          857.7989      -28.2105           103.29%
      0     0       32.0418    15      857.7989       32.0418       78   96.26%
*     0+    0                           63.6419       32.0418            49.65%
*     0+    0                           32.4704       32.0418             1.32%
      0     0        cutoff             32.4704                     78    0.00%
Elapsed time = 0.28 sec. (135.15 ticks, tree = 0.01 MB, solutions = 3)

Root node processing (before b&c):
  Real time             =    0.29 sec. (136.64 ticks)
Sequential b&c:
  Real time             =    0.00 sec. (0.00 ticks)
                          ------------
Total (root+branch&cut) =    0.29 sec. (136.64 ticks)

Solution pool: 3 solutions saved.

MIP - Integer optimal solution:  Objective =  3.2470351000e+01
Solution time =    0.29 sec.  Iterations = 78  Nodes = 0
Deterministic time = 136.74 ticks  (477.85 ticks/sec)

CPLEX> Incumbent solution written to file '/tmp/cmpl.T23546.gsol'.
CPLEX> 
CMPL: Time used for model generation: 1 seconds
CMPL: Time used for solving the model: 1 seconds


Solution written to ASCII file: results/output_generated_conf_0.1/2017-04-03-4/fair-nonlinear.sol

Solver - finished
